(set-logic QF_LRA)
(declare-fun X0 () Real )
(declare-fun Y0 () Real )
(declare-fun X1 () Real )
(declare-fun Y1 () Real )
(declare-fun X2 () Real )
(declare-fun Y2 () Real )
(declare-fun X3 () Real )
(declare-fun Y3 () Real )
(declare-fun X4 () Real )
(declare-fun Y4 () Real )
(declare-fun X5 () Real )
(declare-fun Y5 () Real )
(declare-fun X6 () Real )
(declare-fun Y6 () Real )
(declare-fun X7 () Real )
(declare-fun Y7 () Real )
(declare-fun X8 () Real )
(declare-fun Y8 () Real )
(declare-fun X9 () Real )
(declare-fun Y9 () Real )
(declare-fun X10 () Real )
(declare-fun Y10 () Real )
(declare-fun X11 () Real )
(declare-fun Y11 () Real )
(declare-fun X12 () Real )
(declare-fun Y12 () Real )
(declare-fun X13 () Real )
(declare-fun Y13 () Real )
(declare-fun X14 () Real )
(declare-fun Y14 () Real )
(declare-fun X15 () Real )
(declare-fun Y15 () Real )
(declare-fun X16 () Real )
(declare-fun Y16 () Real )
(declare-fun X17 () Real )
(declare-fun Y17 () Real )
(declare-fun Z () Real )
(assert ( and  
( or ( <= ( + X0 92 ) X1 )  ( <= ( + X1 48 ) X0 )  ( <= ( + Y0 21 ) Y1 )  ( <= ( + Y1 27 ) Y0 )  )
( or ( <= ( + X0 92 ) X2 )  ( <= ( + X2 72 ) X0 )  ( <= ( + Y0 21 ) Y2 )  ( <= ( + Y2 52 ) Y0 )  )
( or ( <= ( + X0 92 ) X3 )  ( <= ( + X3 87 ) X0 )  ( <= ( + Y0 21 ) Y3 )  ( <= ( + Y3 84 ) Y0 )  )
( or ( <= ( + X0 92 ) X4 )  ( <= ( + X4 32 ) X0 )  ( <= ( + Y0 21 ) Y4 )  ( <= ( + Y4 85 ) Y0 )  )
( or ( <= ( + X0 92 ) X5 )  ( <= ( + X5 71 ) X0 )  ( <= ( + Y0 21 ) Y5 )  ( <= ( + Y5 49 ) Y0 )  )
( or ( <= ( + X0 92 ) X6 )  ( <= ( + X6 96 ) X0 )  ( <= ( + Y0 21 ) Y6 )  ( <= ( + Y6 82 ) Y0 )  )
( or ( <= ( + X0 92 ) X7 )  ( <= ( + X7 100 ) X0 )  ( <= ( + Y0 21 ) Y7 )  ( <= ( + Y7 44 ) Y0 )  )
( or ( <= ( + X0 92 ) X8 )  ( <= ( + X8 39 ) X0 )  ( <= ( + Y0 21 ) Y8 )  ( <= ( + Y8 5 ) Y0 )  )
( or ( <= ( + X0 92 ) X9 )  ( <= ( + X9 78 ) X0 )  ( <= ( + Y0 21 ) Y9 )  ( <= ( + Y9 3 ) Y0 )  )
( or ( <= ( + X0 92 ) X10 )  ( <= ( + X10 24 ) X0 )  ( <= ( + Y0 21 ) Y10 )  ( <= ( + Y10 14 ) Y0 )  )
( or ( <= ( + X0 92 ) X11 )  ( <= ( + X11 39 ) X0 )  ( <= ( + Y0 21 ) Y11 )  ( <= ( + Y11 21 ) Y0 )  )
( or ( <= ( + X0 92 ) X12 )  ( <= ( + X12 81 ) X0 )  ( <= ( + Y0 21 ) Y12 )  ( <= ( + Y12 33 ) Y0 )  )
( or ( <= ( + X0 92 ) X13 )  ( <= ( + X13 95 ) X0 )  ( <= ( + Y0 21 ) Y13 )  ( <= ( + Y13 5 ) Y0 )  )
( or ( <= ( + X0 92 ) X14 )  ( <= ( + X14 28 ) X0 )  ( <= ( + Y0 21 ) Y14 )  ( <= ( + Y14 20 ) Y0 )  )
( or ( <= ( + X0 92 ) X15 )  ( <= ( + X15 99 ) X0 )  ( <= ( + Y0 21 ) Y15 )  ( <= ( + Y15 4 ) Y0 )  )
( or ( <= ( + X0 92 ) X16 )  ( <= ( + X16 42 ) X0 )  ( <= ( + Y0 21 ) Y16 )  ( <= ( + Y16 43 ) Y0 )  )
( or ( <= ( + X0 92 ) X17 )  ( <= ( + X17 84 ) X0 )  ( <= ( + Y0 21 ) Y17 )  ( <= ( + Y17 51 ) Y0 )  )
( or ( <= ( + X1 48 ) X2 )  ( <= ( + X2 72 ) X1 )  ( <= ( + Y1 27 ) Y2 )  ( <= ( + Y2 52 ) Y1 )  )
( or ( <= ( + X1 48 ) X3 )  ( <= ( + X3 87 ) X1 )  ( <= ( + Y1 27 ) Y3 )  ( <= ( + Y3 84 ) Y1 )  )
( or ( <= ( + X1 48 ) X4 )  ( <= ( + X4 32 ) X1 )  ( <= ( + Y1 27 ) Y4 )  ( <= ( + Y4 85 ) Y1 )  )
( or ( <= ( + X1 48 ) X5 )  ( <= ( + X5 71 ) X1 )  ( <= ( + Y1 27 ) Y5 )  ( <= ( + Y5 49 ) Y1 )  )
( or ( <= ( + X1 48 ) X6 )  ( <= ( + X6 96 ) X1 )  ( <= ( + Y1 27 ) Y6 )  ( <= ( + Y6 82 ) Y1 )  )
( or ( <= ( + X1 48 ) X7 )  ( <= ( + X7 100 ) X1 )  ( <= ( + Y1 27 ) Y7 )  ( <= ( + Y7 44 ) Y1 )  )
( or ( <= ( + X1 48 ) X8 )  ( <= ( + X8 39 ) X1 )  ( <= ( + Y1 27 ) Y8 )  ( <= ( + Y8 5 ) Y1 )  )
( or ( <= ( + X1 48 ) X9 )  ( <= ( + X9 78 ) X1 )  ( <= ( + Y1 27 ) Y9 )  ( <= ( + Y9 3 ) Y1 )  )
( or ( <= ( + X1 48 ) X10 )  ( <= ( + X10 24 ) X1 )  ( <= ( + Y1 27 ) Y10 )  ( <= ( + Y10 14 ) Y1 )  )
( or ( <= ( + X1 48 ) X11 )  ( <= ( + X11 39 ) X1 )  ( <= ( + Y1 27 ) Y11 )  ( <= ( + Y11 21 ) Y1 )  )
( or ( <= ( + X1 48 ) X12 )  ( <= ( + X12 81 ) X1 )  ( <= ( + Y1 27 ) Y12 )  ( <= ( + Y12 33 ) Y1 )  )
( or ( <= ( + X1 48 ) X13 )  ( <= ( + X13 95 ) X1 )  ( <= ( + Y1 27 ) Y13 )  ( <= ( + Y13 5 ) Y1 )  )
( or ( <= ( + X1 48 ) X14 )  ( <= ( + X14 28 ) X1 )  ( <= ( + Y1 27 ) Y14 )  ( <= ( + Y14 20 ) Y1 )  )
( or ( <= ( + X1 48 ) X15 )  ( <= ( + X15 99 ) X1 )  ( <= ( + Y1 27 ) Y15 )  ( <= ( + Y15 4 ) Y1 )  )
( or ( <= ( + X1 48 ) X16 )  ( <= ( + X16 42 ) X1 )  ( <= ( + Y1 27 ) Y16 )  ( <= ( + Y16 43 ) Y1 )  )
( or ( <= ( + X1 48 ) X17 )  ( <= ( + X17 84 ) X1 )  ( <= ( + Y1 27 ) Y17 )  ( <= ( + Y17 51 ) Y1 )  )
( or ( <= ( + X2 72 ) X3 )  ( <= ( + X3 87 ) X2 )  ( <= ( + Y2 52 ) Y3 )  ( <= ( + Y3 84 ) Y2 )  )
( or ( <= ( + X2 72 ) X4 )  ( <= ( + X4 32 ) X2 )  ( <= ( + Y2 52 ) Y4 )  ( <= ( + Y4 85 ) Y2 )  )
( or ( <= ( + X2 72 ) X5 )  ( <= ( + X5 71 ) X2 )  ( <= ( + Y2 52 ) Y5 )  ( <= ( + Y5 49 ) Y2 )  )
( or ( <= ( + X2 72 ) X6 )  ( <= ( + X6 96 ) X2 )  ( <= ( + Y2 52 ) Y6 )  ( <= ( + Y6 82 ) Y2 )  )
( or ( <= ( + X2 72 ) X7 )  ( <= ( + X7 100 ) X2 )  ( <= ( + Y2 52 ) Y7 )  ( <= ( + Y7 44 ) Y2 )  )
( or ( <= ( + X2 72 ) X8 )  ( <= ( + X8 39 ) X2 )  ( <= ( + Y2 52 ) Y8 )  ( <= ( + Y8 5 ) Y2 )  )
( or ( <= ( + X2 72 ) X9 )  ( <= ( + X9 78 ) X2 )  ( <= ( + Y2 52 ) Y9 )  ( <= ( + Y9 3 ) Y2 )  )
( or ( <= ( + X2 72 ) X10 )  ( <= ( + X10 24 ) X2 )  ( <= ( + Y2 52 ) Y10 )  ( <= ( + Y10 14 ) Y2 )  )
( or ( <= ( + X2 72 ) X11 )  ( <= ( + X11 39 ) X2 )  ( <= ( + Y2 52 ) Y11 )  ( <= ( + Y11 21 ) Y2 )  )
( or ( <= ( + X2 72 ) X12 )  ( <= ( + X12 81 ) X2 )  ( <= ( + Y2 52 ) Y12 )  ( <= ( + Y12 33 ) Y2 )  )
( or ( <= ( + X2 72 ) X13 )  ( <= ( + X13 95 ) X2 )  ( <= ( + Y2 52 ) Y13 )  ( <= ( + Y13 5 ) Y2 )  )
( or ( <= ( + X2 72 ) X14 )  ( <= ( + X14 28 ) X2 )  ( <= ( + Y2 52 ) Y14 )  ( <= ( + Y14 20 ) Y2 )  )
( or ( <= ( + X2 72 ) X15 )  ( <= ( + X15 99 ) X2 )  ( <= ( + Y2 52 ) Y15 )  ( <= ( + Y15 4 ) Y2 )  )
( or ( <= ( + X2 72 ) X16 )  ( <= ( + X16 42 ) X2 )  ( <= ( + Y2 52 ) Y16 )  ( <= ( + Y16 43 ) Y2 )  )
( or ( <= ( + X2 72 ) X17 )  ( <= ( + X17 84 ) X2 )  ( <= ( + Y2 52 ) Y17 )  ( <= ( + Y17 51 ) Y2 )  )
( or ( <= ( + X3 87 ) X4 )  ( <= ( + X4 32 ) X3 )  ( <= ( + Y3 84 ) Y4 )  ( <= ( + Y4 85 ) Y3 )  )
( or ( <= ( + X3 87 ) X5 )  ( <= ( + X5 71 ) X3 )  ( <= ( + Y3 84 ) Y5 )  ( <= ( + Y5 49 ) Y3 )  )
( or ( <= ( + X3 87 ) X6 )  ( <= ( + X6 96 ) X3 )  ( <= ( + Y3 84 ) Y6 )  ( <= ( + Y6 82 ) Y3 )  )
( or ( <= ( + X3 87 ) X7 )  ( <= ( + X7 100 ) X3 )  ( <= ( + Y3 84 ) Y7 )  ( <= ( + Y7 44 ) Y3 )  )
( or ( <= ( + X3 87 ) X8 )  ( <= ( + X8 39 ) X3 )  ( <= ( + Y3 84 ) Y8 )  ( <= ( + Y8 5 ) Y3 )  )
( or ( <= ( + X3 87 ) X9 )  ( <= ( + X9 78 ) X3 )  ( <= ( + Y3 84 ) Y9 )  ( <= ( + Y9 3 ) Y3 )  )
( or ( <= ( + X3 87 ) X10 )  ( <= ( + X10 24 ) X3 )  ( <= ( + Y3 84 ) Y10 )  ( <= ( + Y10 14 ) Y3 )  )
( or ( <= ( + X3 87 ) X11 )  ( <= ( + X11 39 ) X3 )  ( <= ( + Y3 84 ) Y11 )  ( <= ( + Y11 21 ) Y3 )  )
( or ( <= ( + X3 87 ) X12 )  ( <= ( + X12 81 ) X3 )  ( <= ( + Y3 84 ) Y12 )  ( <= ( + Y12 33 ) Y3 )  )
( or ( <= ( + X3 87 ) X13 )  ( <= ( + X13 95 ) X3 )  ( <= ( + Y3 84 ) Y13 )  ( <= ( + Y13 5 ) Y3 )  )
( or ( <= ( + X3 87 ) X14 )  ( <= ( + X14 28 ) X3 )  ( <= ( + Y3 84 ) Y14 )  ( <= ( + Y14 20 ) Y3 )  )
( or ( <= ( + X3 87 ) X15 )  ( <= ( + X15 99 ) X3 )  ( <= ( + Y3 84 ) Y15 )  ( <= ( + Y15 4 ) Y3 )  )
( or ( <= ( + X3 87 ) X16 )  ( <= ( + X16 42 ) X3 )  ( <= ( + Y3 84 ) Y16 )  ( <= ( + Y16 43 ) Y3 )  )
( or ( <= ( + X3 87 ) X17 )  ( <= ( + X17 84 ) X3 )  ( <= ( + Y3 84 ) Y17 )  ( <= ( + Y17 51 ) Y3 )  )
( or ( <= ( + X4 32 ) X5 )  ( <= ( + X5 71 ) X4 )  ( <= ( + Y4 85 ) Y5 )  ( <= ( + Y5 49 ) Y4 )  )
( or ( <= ( + X4 32 ) X6 )  ( <= ( + X6 96 ) X4 )  ( <= ( + Y4 85 ) Y6 )  ( <= ( + Y6 82 ) Y4 )  )
( or ( <= ( + X4 32 ) X7 )  ( <= ( + X7 100 ) X4 )  ( <= ( + Y4 85 ) Y7 )  ( <= ( + Y7 44 ) Y4 )  )
( or ( <= ( + X4 32 ) X8 )  ( <= ( + X8 39 ) X4 )  ( <= ( + Y4 85 ) Y8 )  ( <= ( + Y8 5 ) Y4 )  )
( or ( <= ( + X4 32 ) X9 )  ( <= ( + X9 78 ) X4 )  ( <= ( + Y4 85 ) Y9 )  ( <= ( + Y9 3 ) Y4 )  )
( or ( <= ( + X4 32 ) X10 )  ( <= ( + X10 24 ) X4 )  ( <= ( + Y4 85 ) Y10 )  ( <= ( + Y10 14 ) Y4 )  )
( or ( <= ( + X4 32 ) X11 )  ( <= ( + X11 39 ) X4 )  ( <= ( + Y4 85 ) Y11 )  ( <= ( + Y11 21 ) Y4 )  )
( or ( <= ( + X4 32 ) X12 )  ( <= ( + X12 81 ) X4 )  ( <= ( + Y4 85 ) Y12 )  ( <= ( + Y12 33 ) Y4 )  )
( or ( <= ( + X4 32 ) X13 )  ( <= ( + X13 95 ) X4 )  ( <= ( + Y4 85 ) Y13 )  ( <= ( + Y13 5 ) Y4 )  )
( or ( <= ( + X4 32 ) X14 )  ( <= ( + X14 28 ) X4 )  ( <= ( + Y4 85 ) Y14 )  ( <= ( + Y14 20 ) Y4 )  )
( or ( <= ( + X4 32 ) X15 )  ( <= ( + X15 99 ) X4 )  ( <= ( + Y4 85 ) Y15 )  ( <= ( + Y15 4 ) Y4 )  )
( or ( <= ( + X4 32 ) X16 )  ( <= ( + X16 42 ) X4 )  ( <= ( + Y4 85 ) Y16 )  ( <= ( + Y16 43 ) Y4 )  )
( or ( <= ( + X4 32 ) X17 )  ( <= ( + X17 84 ) X4 )  ( <= ( + Y4 85 ) Y17 )  ( <= ( + Y17 51 ) Y4 )  )
( or ( <= ( + X5 71 ) X6 )  ( <= ( + X6 96 ) X5 )  ( <= ( + Y5 49 ) Y6 )  ( <= ( + Y6 82 ) Y5 )  )
( or ( <= ( + X5 71 ) X7 )  ( <= ( + X7 100 ) X5 )  ( <= ( + Y5 49 ) Y7 )  ( <= ( + Y7 44 ) Y5 )  )
( or ( <= ( + X5 71 ) X8 )  ( <= ( + X8 39 ) X5 )  ( <= ( + Y5 49 ) Y8 )  ( <= ( + Y8 5 ) Y5 )  )
( or ( <= ( + X5 71 ) X9 )  ( <= ( + X9 78 ) X5 )  ( <= ( + Y5 49 ) Y9 )  ( <= ( + Y9 3 ) Y5 )  )
( or ( <= ( + X5 71 ) X10 )  ( <= ( + X10 24 ) X5 )  ( <= ( + Y5 49 ) Y10 )  ( <= ( + Y10 14 ) Y5 )  )
( or ( <= ( + X5 71 ) X11 )  ( <= ( + X11 39 ) X5 )  ( <= ( + Y5 49 ) Y11 )  ( <= ( + Y11 21 ) Y5 )  )
( or ( <= ( + X5 71 ) X12 )  ( <= ( + X12 81 ) X5 )  ( <= ( + Y5 49 ) Y12 )  ( <= ( + Y12 33 ) Y5 )  )
( or ( <= ( + X5 71 ) X13 )  ( <= ( + X13 95 ) X5 )  ( <= ( + Y5 49 ) Y13 )  ( <= ( + Y13 5 ) Y5 )  )
( or ( <= ( + X5 71 ) X14 )  ( <= ( + X14 28 ) X5 )  ( <= ( + Y5 49 ) Y14 )  ( <= ( + Y14 20 ) Y5 )  )
( or ( <= ( + X5 71 ) X15 )  ( <= ( + X15 99 ) X5 )  ( <= ( + Y5 49 ) Y15 )  ( <= ( + Y15 4 ) Y5 )  )
( or ( <= ( + X5 71 ) X16 )  ( <= ( + X16 42 ) X5 )  ( <= ( + Y5 49 ) Y16 )  ( <= ( + Y16 43 ) Y5 )  )
( or ( <= ( + X5 71 ) X17 )  ( <= ( + X17 84 ) X5 )  ( <= ( + Y5 49 ) Y17 )  ( <= ( + Y17 51 ) Y5 )  )
( or ( <= ( + X6 96 ) X7 )  ( <= ( + X7 100 ) X6 )  ( <= ( + Y6 82 ) Y7 )  ( <= ( + Y7 44 ) Y6 )  )
( or ( <= ( + X6 96 ) X8 )  ( <= ( + X8 39 ) X6 )  ( <= ( + Y6 82 ) Y8 )  ( <= ( + Y8 5 ) Y6 )  )
( or ( <= ( + X6 96 ) X9 )  ( <= ( + X9 78 ) X6 )  ( <= ( + Y6 82 ) Y9 )  ( <= ( + Y9 3 ) Y6 )  )
( or ( <= ( + X6 96 ) X10 )  ( <= ( + X10 24 ) X6 )  ( <= ( + Y6 82 ) Y10 )  ( <= ( + Y10 14 ) Y6 )  )
( or ( <= ( + X6 96 ) X11 )  ( <= ( + X11 39 ) X6 )  ( <= ( + Y6 82 ) Y11 )  ( <= ( + Y11 21 ) Y6 )  )
( or ( <= ( + X6 96 ) X12 )  ( <= ( + X12 81 ) X6 )  ( <= ( + Y6 82 ) Y12 )  ( <= ( + Y12 33 ) Y6 )  )
( or ( <= ( + X6 96 ) X13 )  ( <= ( + X13 95 ) X6 )  ( <= ( + Y6 82 ) Y13 )  ( <= ( + Y13 5 ) Y6 )  )
( or ( <= ( + X6 96 ) X14 )  ( <= ( + X14 28 ) X6 )  ( <= ( + Y6 82 ) Y14 )  ( <= ( + Y14 20 ) Y6 )  )
( or ( <= ( + X6 96 ) X15 )  ( <= ( + X15 99 ) X6 )  ( <= ( + Y6 82 ) Y15 )  ( <= ( + Y15 4 ) Y6 )  )
( or ( <= ( + X6 96 ) X16 )  ( <= ( + X16 42 ) X6 )  ( <= ( + Y6 82 ) Y16 )  ( <= ( + Y16 43 ) Y6 )  )
( or ( <= ( + X6 96 ) X17 )  ( <= ( + X17 84 ) X6 )  ( <= ( + Y6 82 ) Y17 )  ( <= ( + Y17 51 ) Y6 )  )
( or ( <= ( + X7 100 ) X8 )  ( <= ( + X8 39 ) X7 )  ( <= ( + Y7 44 ) Y8 )  ( <= ( + Y8 5 ) Y7 )  )
( or ( <= ( + X7 100 ) X9 )  ( <= ( + X9 78 ) X7 )  ( <= ( + Y7 44 ) Y9 )  ( <= ( + Y9 3 ) Y7 )  )
( or ( <= ( + X7 100 ) X10 )  ( <= ( + X10 24 ) X7 )  ( <= ( + Y7 44 ) Y10 )  ( <= ( + Y10 14 ) Y7 )  )
( or ( <= ( + X7 100 ) X11 )  ( <= ( + X11 39 ) X7 )  ( <= ( + Y7 44 ) Y11 )  ( <= ( + Y11 21 ) Y7 )  )
( or ( <= ( + X7 100 ) X12 )  ( <= ( + X12 81 ) X7 )  ( <= ( + Y7 44 ) Y12 )  ( <= ( + Y12 33 ) Y7 )  )
( or ( <= ( + X7 100 ) X13 )  ( <= ( + X13 95 ) X7 )  ( <= ( + Y7 44 ) Y13 )  ( <= ( + Y13 5 ) Y7 )  )
( or ( <= ( + X7 100 ) X14 )  ( <= ( + X14 28 ) X7 )  ( <= ( + Y7 44 ) Y14 )  ( <= ( + Y14 20 ) Y7 )  )
( or ( <= ( + X7 100 ) X15 )  ( <= ( + X15 99 ) X7 )  ( <= ( + Y7 44 ) Y15 )  ( <= ( + Y15 4 ) Y7 )  )
( or ( <= ( + X7 100 ) X16 )  ( <= ( + X16 42 ) X7 )  ( <= ( + Y7 44 ) Y16 )  ( <= ( + Y16 43 ) Y7 )  )
( or ( <= ( + X7 100 ) X17 )  ( <= ( + X17 84 ) X7 )  ( <= ( + Y7 44 ) Y17 )  ( <= ( + Y17 51 ) Y7 )  )
( or ( <= ( + X8 39 ) X9 )  ( <= ( + X9 78 ) X8 )  ( <= ( + Y8 5 ) Y9 )  ( <= ( + Y9 3 ) Y8 )  )
( or ( <= ( + X8 39 ) X10 )  ( <= ( + X10 24 ) X8 )  ( <= ( + Y8 5 ) Y10 )  ( <= ( + Y10 14 ) Y8 )  )
( or ( <= ( + X8 39 ) X11 )  ( <= ( + X11 39 ) X8 )  ( <= ( + Y8 5 ) Y11 )  ( <= ( + Y11 21 ) Y8 )  )
( or ( <= ( + X8 39 ) X12 )  ( <= ( + X12 81 ) X8 )  ( <= ( + Y8 5 ) Y12 )  ( <= ( + Y12 33 ) Y8 )  )
( or ( <= ( + X8 39 ) X13 )  ( <= ( + X13 95 ) X8 )  ( <= ( + Y8 5 ) Y13 )  ( <= ( + Y13 5 ) Y8 )  )
( or ( <= ( + X8 39 ) X14 )  ( <= ( + X14 28 ) X8 )  ( <= ( + Y8 5 ) Y14 )  ( <= ( + Y14 20 ) Y8 )  )
( or ( <= ( + X8 39 ) X15 )  ( <= ( + X15 99 ) X8 )  ( <= ( + Y8 5 ) Y15 )  ( <= ( + Y15 4 ) Y8 )  )
( or ( <= ( + X8 39 ) X16 )  ( <= ( + X16 42 ) X8 )  ( <= ( + Y8 5 ) Y16 )  ( <= ( + Y16 43 ) Y8 )  )
( or ( <= ( + X8 39 ) X17 )  ( <= ( + X17 84 ) X8 )  ( <= ( + Y8 5 ) Y17 )  ( <= ( + Y17 51 ) Y8 )  )
( or ( <= ( + X9 78 ) X10 )  ( <= ( + X10 24 ) X9 )  ( <= ( + Y9 3 ) Y10 )  ( <= ( + Y10 14 ) Y9 )  )
( or ( <= ( + X9 78 ) X11 )  ( <= ( + X11 39 ) X9 )  ( <= ( + Y9 3 ) Y11 )  ( <= ( + Y11 21 ) Y9 )  )
( or ( <= ( + X9 78 ) X12 )  ( <= ( + X12 81 ) X9 )  ( <= ( + Y9 3 ) Y12 )  ( <= ( + Y12 33 ) Y9 )  )
( or ( <= ( + X9 78 ) X13 )  ( <= ( + X13 95 ) X9 )  ( <= ( + Y9 3 ) Y13 )  ( <= ( + Y13 5 ) Y9 )  )
( or ( <= ( + X9 78 ) X14 )  ( <= ( + X14 28 ) X9 )  ( <= ( + Y9 3 ) Y14 )  ( <= ( + Y14 20 ) Y9 )  )
( or ( <= ( + X9 78 ) X15 )  ( <= ( + X15 99 ) X9 )  ( <= ( + Y9 3 ) Y15 )  ( <= ( + Y15 4 ) Y9 )  )
( or ( <= ( + X9 78 ) X16 )  ( <= ( + X16 42 ) X9 )  ( <= ( + Y9 3 ) Y16 )  ( <= ( + Y16 43 ) Y9 )  )
( or ( <= ( + X9 78 ) X17 )  ( <= ( + X17 84 ) X9 )  ( <= ( + Y9 3 ) Y17 )  ( <= ( + Y17 51 ) Y9 )  )
( or ( <= ( + X10 24 ) X11 )  ( <= ( + X11 39 ) X10 )  ( <= ( + Y10 14 ) Y11 )  ( <= ( + Y11 21 ) Y10 )  )
( or ( <= ( + X10 24 ) X12 )  ( <= ( + X12 81 ) X10 )  ( <= ( + Y10 14 ) Y12 )  ( <= ( + Y12 33 ) Y10 )  )
( or ( <= ( + X10 24 ) X13 )  ( <= ( + X13 95 ) X10 )  ( <= ( + Y10 14 ) Y13 )  ( <= ( + Y13 5 ) Y10 )  )
( or ( <= ( + X10 24 ) X14 )  ( <= ( + X14 28 ) X10 )  ( <= ( + Y10 14 ) Y14 )  ( <= ( + Y14 20 ) Y10 )  )
( or ( <= ( + X10 24 ) X15 )  ( <= ( + X15 99 ) X10 )  ( <= ( + Y10 14 ) Y15 )  ( <= ( + Y15 4 ) Y10 )  )
( or ( <= ( + X10 24 ) X16 )  ( <= ( + X16 42 ) X10 )  ( <= ( + Y10 14 ) Y16 )  ( <= ( + Y16 43 ) Y10 )  )
( or ( <= ( + X10 24 ) X17 )  ( <= ( + X17 84 ) X10 )  ( <= ( + Y10 14 ) Y17 )  ( <= ( + Y17 51 ) Y10 )  )
( or ( <= ( + X11 39 ) X12 )  ( <= ( + X12 81 ) X11 )  ( <= ( + Y11 21 ) Y12 )  ( <= ( + Y12 33 ) Y11 )  )
( or ( <= ( + X11 39 ) X13 )  ( <= ( + X13 95 ) X11 )  ( <= ( + Y11 21 ) Y13 )  ( <= ( + Y13 5 ) Y11 )  )
( or ( <= ( + X11 39 ) X14 )  ( <= ( + X14 28 ) X11 )  ( <= ( + Y11 21 ) Y14 )  ( <= ( + Y14 20 ) Y11 )  )
( or ( <= ( + X11 39 ) X15 )  ( <= ( + X15 99 ) X11 )  ( <= ( + Y11 21 ) Y15 )  ( <= ( + Y15 4 ) Y11 )  )
( or ( <= ( + X11 39 ) X16 )  ( <= ( + X16 42 ) X11 )  ( <= ( + Y11 21 ) Y16 )  ( <= ( + Y16 43 ) Y11 )  )
( or ( <= ( + X11 39 ) X17 )  ( <= ( + X17 84 ) X11 )  ( <= ( + Y11 21 ) Y17 )  ( <= ( + Y17 51 ) Y11 )  )
( or ( <= ( + X12 81 ) X13 )  ( <= ( + X13 95 ) X12 )  ( <= ( + Y12 33 ) Y13 )  ( <= ( + Y13 5 ) Y12 )  )
( or ( <= ( + X12 81 ) X14 )  ( <= ( + X14 28 ) X12 )  ( <= ( + Y12 33 ) Y14 )  ( <= ( + Y14 20 ) Y12 )  )
( or ( <= ( + X12 81 ) X15 )  ( <= ( + X15 99 ) X12 )  ( <= ( + Y12 33 ) Y15 )  ( <= ( + Y15 4 ) Y12 )  )
( or ( <= ( + X12 81 ) X16 )  ( <= ( + X16 42 ) X12 )  ( <= ( + Y12 33 ) Y16 )  ( <= ( + Y16 43 ) Y12 )  )
( or ( <= ( + X12 81 ) X17 )  ( <= ( + X17 84 ) X12 )  ( <= ( + Y12 33 ) Y17 )  ( <= ( + Y17 51 ) Y12 )  )
( or ( <= ( + X13 95 ) X14 )  ( <= ( + X14 28 ) X13 )  ( <= ( + Y13 5 ) Y14 )  ( <= ( + Y14 20 ) Y13 )  )
( or ( <= ( + X13 95 ) X15 )  ( <= ( + X15 99 ) X13 )  ( <= ( + Y13 5 ) Y15 )  ( <= ( + Y15 4 ) Y13 )  )
( or ( <= ( + X13 95 ) X16 )  ( <= ( + X16 42 ) X13 )  ( <= ( + Y13 5 ) Y16 )  ( <= ( + Y16 43 ) Y13 )  )
( or ( <= ( + X13 95 ) X17 )  ( <= ( + X17 84 ) X13 )  ( <= ( + Y13 5 ) Y17 )  ( <= ( + Y17 51 ) Y13 )  )
( or ( <= ( + X14 28 ) X15 )  ( <= ( + X15 99 ) X14 )  ( <= ( + Y14 20 ) Y15 )  ( <= ( + Y15 4 ) Y14 )  )
( or ( <= ( + X14 28 ) X16 )  ( <= ( + X16 42 ) X14 )  ( <= ( + Y14 20 ) Y16 )  ( <= ( + Y16 43 ) Y14 )  )
( or ( <= ( + X14 28 ) X17 )  ( <= ( + X17 84 ) X14 )  ( <= ( + Y14 20 ) Y17 )  ( <= ( + Y17 51 ) Y14 )  )
( or ( <= ( + X15 99 ) X16 )  ( <= ( + X16 42 ) X15 )  ( <= ( + Y15 4 ) Y16 )  ( <= ( + Y16 43 ) Y15 )  )
( or ( <= ( + X15 99 ) X17 )  ( <= ( + X17 84 ) X15 )  ( <= ( + Y15 4 ) Y17 )  ( <= ( + Y17 51 ) Y15 )  )
( or ( <= ( + X16 42 ) X17 )  ( <= ( + X17 84 ) X16 )  ( <= ( + Y16 43 ) Y17 )  ( <= ( + Y17 51 ) Y16 )  )
( >= X0 0)
( <= ( + X0 92) Z)
( >= Y0 0)
( <= ( + Y0 21 ) 100)
( >= X1 0)
( <= ( + X1 48) Z)
( >= Y1 0)
( <= ( + Y1 27 ) 100)
( >= X2 0)
( <= ( + X2 72) Z)
( >= Y2 0)
( <= ( + Y2 52 ) 100)
( >= X3 0)
( <= ( + X3 87) Z)
( >= Y3 0)
( <= ( + Y3 84 ) 100)
( >= X4 0)
( <= ( + X4 32) Z)
( >= Y4 0)
( <= ( + Y4 85 ) 100)
( >= X5 0)
( <= ( + X5 71) Z)
( >= Y5 0)
( <= ( + Y5 49 ) 100)
( >= X6 0)
( <= ( + X6 96) Z)
( >= Y6 0)
( <= ( + Y6 82 ) 100)
( >= X7 0)
( <= ( + X7 100) Z)
( >= Y7 0)
( <= ( + Y7 44 ) 100)
( >= X8 0)
( <= ( + X8 39) Z)
( >= Y8 0)
( <= ( + Y8 5 ) 100)
( >= X9 0)
( <= ( + X9 78) Z)
( >= Y9 0)
( <= ( + Y9 3 ) 100)
( >= X10 0)
( <= ( + X10 24) Z)
( >= Y10 0)
( <= ( + Y10 14 ) 100)
( >= X11 0)
( <= ( + X11 39) Z)
( >= Y11 0)
( <= ( + Y11 21 ) 100)
( >= X12 0)
( <= ( + X12 81) Z)
( >= Y12 0)
( <= ( + Y12 33 ) 100)
( >= X13 0)
( <= ( + X13 95) Z)
( >= Y13 0)
( <= ( + Y13 5 ) 100)
( >= X14 0)
( <= ( + X14 28) Z)
( >= Y14 0)
( <= ( + Y14 20 ) 100)
( >= X15 0)
( <= ( + X15 99) Z)
( >= Y15 0)
( <= ( + Y15 4 ) 100)
( >= X16 0)
( <= ( + X16 42) Z)
( >= Y16 0)
( <= ( + Y16 43 ) 100)
( >= X17 0)
( <= ( + X17 84) Z)
( >= Y17 0)
( <= ( + Y17 51 ) 100)
) )
(minimize Z)
(check-sat)
